p cnf 9 8
x26 x48 x1 -x4 x28 x1 -x50 x26 x1 0
x26 x48 x1 -x4 x28 x1 -x50 x26 x34 0
x26 x48 x1 -x4 x28 -x24 -x50 x26 x1 0
x26 x48 x1 -x4 x28 -x24 -x50 x26 x34 0
x26 x48 x15 -x4 x28 x1 -x50 x26 x1 0
x26 x48 x15 -x4 x28 x1 -x50 x26 x34 0
x26 x48 x15 -x4 x28 -x24 -x50 x26 x1 0
x26 x48 x15 -x4 x28 -x24 -x50 x26 x34 0
